(set-logic ALL)
(declare-const input_str_VAR String)
(assert (not (= (str.len input_str_VAR) 0)))
(assert (not (< (str.len input_str_VAR) 0)))
(assert (str.contains input_str_VAR " "))
(check-sat)
(get-value (input_str_VAR))
